Maximize
F 

Subject to
F - 9y121 - 9y184 - 12y6 - 9y104 - 9y66 - 3y89 - 6y21 - 6y55 - 12y63 - 3y156 - 6y75 - 12y146 - 6y64 - 6y1 - 9y18 - 6y37 - 9y117 - 12y139 - 9y51 - 3y120 - 3y35 - 12y59 = 0

x171x121x1 + x171x55x1 + x171x63x1 + x171x64x1 + x171x1x1 + x171x18x1 + x171x51x1 + x171x120x1 
<= 1
x172x64x1 + x172x1x1 + x172x18x1 + x172x51x1 + x172x120x1 
<= 2
x22x121x1 + x22x55x1 + x22x63x1 + x22x64x1 + x22x1x1 + x22x18x1 + x22x51x1 + x22x120x1 
<= 2
x26x121x1 + x26x55x1 + x26x63x1 + x26x64x1 + x26x1x1 + x26x18x1 + x26x51x1 + x26x120x1 
<= 1
x182x121x1 + x182x55x1 + x182x63x1 + x182x64x1 + x182x1x1 + x182x18x1 + x182x51x1 + x182x120x1 
<= 1

x159x21x2 + x159x156x2 + x159x75x2 + x159x146x2 + x159x64x2 + x159x37x2 + x159x117x2 + x159x139x2 + x159x59x2 
<= 2
x124x146x2 + x124x64x2 + x124x37x2 + x124x139x2 + x124x59x2 
<= 2
x142x75x2 + x142x146x2 + x142x64x2 + x142x37x2 + x142x117x2 + x142x139x2 + x142x59x2 
<= 1
x99x104x2 + x99x21x2 + x99x156x2 + x99x75x2 + x99x146x2 + x99x64x2 + x99x37x2 + x99x117x2 + x99x139x2 + x99x59x2 
<= 1
x108x59x2 
<= 1
x188x59x2 
<= 1
x145x6x3 + x145x104x3 + x145x66x3 + x145x89x3 + x145x21x3 + x145x63x3 + x145x156x3 + x145x146x3 + x145x117x3 + x145x139x3 + x145x35x3 
<= 1
x47x63x3 + x47x156x3 + x47x146x3 + x47x117x3 + x47x139x3 + x47x35x3 
<= 2
x49x146x3 + x49x117x3 + x49x139x3 + x49x35x3 
<= 2
x142x146x3 + x142x117x3 + x142x139x3 + x142x35x3 
<= 1
x99x184x3 + x99x104x3 + x99x89x3 + x99x21x3 + x99x63x3 + x99x156x3 + x99x146x3 + x99x117x3 + x99x139x3 + x99x35x3 
<= 1
x171x121x1 + x22x121x1 + x26x121x1 + x182x121x1 
- x121x0x1
- x121x55x1 - x121x63x1 - x121x64x1 - x121x1x1 - x121x18x1 - x121x51x1 - x121x120x1 
= 0


- x121x184x3 - x121x104x3 - x121x89x3 - x121x21x3 - x121x63x3 - x121x156x3 - x121x146x3 - x121x117x3 - x121x139x3 - x121x35x3 
= 0



x99x184x3 + x121x184x3 
- x184x0x3
- x184x104x3 - x184x89x3 - x184x63x3 - x184x156x3 - x184x146x3 - x184x117x3 - x184x139x3 - x184x35x3 
= 0



- x6x156x2 - x6x75x2 - x6x146x2 - x6x64x2 - x6x37x2 - x6x117x2 - x6x139x2 - x6x59x2 
= 0
x145x6x3 
- x6x0x3
- x6x156x3 - x6x146x3 - x6x117x3 - x6x139x3 - x6x35x3 
= 0


x99x104x2 
- x104x0x2
- x104x156x2 - x104x75x2 - x104x146x2 - x104x64x2 - x104x37x2 - x104x117x2 - x104x139x2 - x104x59x2 
= 0
x145x104x3 + x99x104x3 + x121x104x3 + x184x104x3 
- x104x0x3
- x104x89x3 - x104x63x3 - x104x156x3 - x104x146x3 - x104x117x3 - x104x139x3 - x104x35x3 
= 0



- x66x21x2 - x66x156x2 - x66x75x2 - x66x146x2 - x66x64x2 - x66x37x2 - x66x117x2 - x66x139x2 - x66x59x2 
= 0
x145x66x3 
- x66x0x3
- x66x21x3 - x66x63x3 - x66x156x3 - x66x146x3 - x66x117x3 - x66x139x3 - x66x35x3 
= 0



x145x89x3 + x99x89x3 + x121x89x3 + x184x89x3 + x104x89x3 
- x89x0x3
- x89x63x3 - x89x146x3 - x89x117x3 - x89x139x3 - x89x35x3 
= 0


x159x21x2 + x99x21x2 + x66x21x2 
- x21x0x2
- x21x156x2 - x21x75x2 - x21x146x2 - x21x64x2 - x21x37x2 - x21x117x2 - x21x139x2 - x21x59x2 
= 0
x145x21x3 + x99x21x3 + x121x21x3 + x66x21x3 
- x21x0x3
- x21x63x3 - x21x156x3 - x21x146x3 - x21x117x3 - x21x139x3 - x21x35x3 
= 0

x171x55x1 + x22x55x1 + x26x55x1 + x182x55x1 + x121x55x1 
- x55x0x1
- x55x64x1 - x55x1x1 - x55x18x1 - x55x51x1 - x55x120x1 
= 0



x171x63x1 + x22x63x1 + x26x63x1 + x182x63x1 + x121x63x1 
- x63x0x1
- x63x64x1 - x63x1x1 - x63x18x1 - x63x51x1 - x63x120x1 
= 0

x145x63x3 + x47x63x3 + x99x63x3 + x121x63x3 + x184x63x3 + x104x63x3 + x66x63x3 + x89x63x3 + x21x63x3 
- x63x0x3
- x63x117x3 - x63x139x3 - x63x35x3 
= 0


x159x156x2 + x99x156x2 + x6x156x2 + x104x156x2 + x66x156x2 + x21x156x2 
- x156x0x2
- x156x146x2 - x156x64x2 - x156x139x2 - x156x59x2 
= 0
x145x156x3 + x47x156x3 + x99x156x3 + x121x156x3 + x184x156x3 + x6x156x3 + x104x156x3 + x66x156x3 + x21x156x3 
- x156x0x3
- x156x146x3 - x156x139x3 - x156x35x3 
= 0


x159x75x2 + x142x75x2 + x99x75x2 + x6x75x2 + x104x75x2 + x66x75x2 + x21x75x2 
- x75x0x2

= 0



x159x146x2 + x124x146x2 + x142x146x2 + x99x146x2 + x6x146x2 + x104x146x2 + x66x146x2 + x21x146x2 + x156x146x2 
- x146x0x2
- x146x59x2 
= 0
x145x146x3 + x47x146x3 + x49x146x3 + x142x146x3 + x99x146x3 + x121x146x3 + x184x146x3 + x6x146x3 + x104x146x3 + x66x146x3 + x89x146x3 + x21x146x3 + x156x146x3 
- x146x0x3

= 0

x171x64x1 + x172x64x1 + x22x64x1 + x26x64x1 + x182x64x1 + x121x64x1 + x55x64x1 + x63x64x1 
- x64x0x1

= 0
x159x64x2 + x124x64x2 + x142x64x2 + x99x64x2 + x6x64x2 + x104x64x2 + x66x64x2 + x21x64x2 + x156x64x2 
- x64x0x2
- x64x139x2 - x64x59x2 
= 0


x171x1x1 + x172x1x1 + x22x1x1 + x26x1x1 + x182x1x1 + x121x1x1 + x55x1x1 + x63x1x1 
- x1x0x1
- x1x51x1 - x1x120x1 
= 0



x171x18x1 + x172x18x1 + x22x18x1 + x26x18x1 + x182x18x1 + x121x18x1 + x55x18x1 + x63x18x1 
- x18x0x1
- x18x120x1 
= 0




x159x37x2 + x124x37x2 + x142x37x2 + x99x37x2 + x6x37x2 + x104x37x2 + x66x37x2 + x21x37x2 
- x37x0x2
- x37x59x2 
= 0



x159x117x2 + x142x117x2 + x99x117x2 + x6x117x2 + x104x117x2 + x66x117x2 + x21x117x2 
- x117x0x2
- x117x59x2 
= 0
x145x117x3 + x47x117x3 + x49x117x3 + x142x117x3 + x99x117x3 + x121x117x3 + x184x117x3 + x6x117x3 + x104x117x3 + x66x117x3 + x89x117x3 + x21x117x3 + x63x117x3 
- x117x0x3
- x117x35x3 
= 0


x159x139x2 + x124x139x2 + x142x139x2 + x99x139x2 + x6x139x2 + x104x139x2 + x66x139x2 + x21x139x2 + x156x139x2 + x64x139x2 
- x139x0x2
- x139x59x2 
= 0
x145x139x3 + x47x139x3 + x49x139x3 + x142x139x3 + x99x139x3 + x121x139x3 + x184x139x3 + x6x139x3 + x104x139x3 + x66x139x3 + x89x139x3 + x21x139x3 + x63x139x3 + x156x139x3 
- x139x0x3

= 0

x171x51x1 + x172x51x1 + x22x51x1 + x26x51x1 + x182x51x1 + x121x51x1 + x55x51x1 + x63x51x1 + x1x51x1 
- x51x0x1
- x51x120x1 
= 0



x171x120x1 + x172x120x1 + x22x120x1 + x26x120x1 + x182x120x1 + x121x120x1 + x55x120x1 + x63x120x1 + x1x120x1 + x18x120x1 + x51x120x1 
- x120x0x1

= 0





x145x35x3 + x47x35x3 + x49x35x3 + x142x35x3 + x99x35x3 + x121x35x3 + x184x35x3 + x6x35x3 + x104x35x3 + x66x35x3 + x89x35x3 + x21x35x3 + x63x35x3 + x156x35x3 + x117x35x3 
- x35x0x3

= 0


x159x59x2 + x124x59x2 + x142x59x2 + x99x59x2 + x108x59x2 + x188x59x2 + x6x59x2 + x104x59x2 + x66x59x2 + x21x59x2 + x156x59x2 + x146x59x2 + x64x59x2 + x37x59x2 + x117x59x2 + x139x59x2 
- x59x0x2

= 0


1y121 - x171x121x1 - x22x121x1 - x26x121x1 - x182x121x1 = 0
1y121 = 0
2y184 - x99x184x3 - x121x184x3 = 0
1y6 = 0
1y6 - x145x6x3 = 0
1y104 - x99x104x2 = 0
1y104 - x145x104x3 - x99x104x3 - x121x104x3 - x184x104x3 = 0
1y66 = 0
1y66 - x145x66x3 = 0
2y89 - x145x89x3 - x99x89x3 - x121x89x3 - x184x89x3 - x104x89x3 = 0
1y21 - x159x21x2 - x99x21x2 - x66x21x2 = 0
1y21 - x145x21x3 - x99x21x3 - x121x21x3 - x66x21x3 = 0
2y55 - x171x55x1 - x22x55x1 - x26x55x1 - x182x55x1 - x121x55x1 = 0
1y63 - x171x63x1 - x22x63x1 - x26x63x1 - x182x63x1 - x121x63x1 = 0
1y63 - x145x63x3 - x47x63x3 - x99x63x3 - x121x63x3 - x184x63x3 - x104x63x3 - x66x63x3 - x89x63x3 - x21x63x3 = 0
1y156 - x159x156x2 - x99x156x2 - x6x156x2 - x104x156x2 - x66x156x2 - x21x156x2 = 0
1y156 - x145x156x3 - x47x156x3 - x99x156x3 - x121x156x3 - x184x156x3 - x6x156x3 - x104x156x3 - x66x156x3 - x21x156x3 = 0
2y75 - x159x75x2 - x142x75x2 - x99x75x2 - x6x75x2 - x104x75x2 - x66x75x2 - x21x75x2 = 0
1y146 - x159x146x2 - x124x146x2 - x142x146x2 - x99x146x2 - x6x146x2 - x104x146x2 - x66x146x2 - x21x146x2 - x156x146x2 = 0
1y146 - x145x146x3 - x47x146x3 - x49x146x3 - x142x146x3 - x99x146x3 - x121x146x3 - x184x146x3 - x6x146x3 - x104x146x3 - x66x146x3 - x89x146x3 - x21x146x3 - x156x146x3 = 0
1y64 - x171x64x1 - x172x64x1 - x22x64x1 - x26x64x1 - x182x64x1 - x121x64x1 - x55x64x1 - x63x64x1 = 0
1y64 - x159x64x2 - x124x64x2 - x142x64x2 - x99x64x2 - x6x64x2 - x104x64x2 - x66x64x2 - x21x64x2 - x156x64x2 = 0
2y1 - x171x1x1 - x172x1x1 - x22x1x1 - x26x1x1 - x182x1x1 - x121x1x1 - x55x1x1 - x63x1x1 = 0
2y18 - x171x18x1 - x172x18x1 - x22x18x1 - x26x18x1 - x182x18x1 - x121x18x1 - x55x18x1 - x63x18x1 = 0
2y37 - x159x37x2 - x124x37x2 - x142x37x2 - x99x37x2 - x6x37x2 - x104x37x2 - x66x37x2 - x21x37x2 = 0
1y117 - x159x117x2 - x142x117x2 - x99x117x2 - x6x117x2 - x104x117x2 - x66x117x2 - x21x117x2 = 0
1y117 - x145x117x3 - x47x117x3 - x49x117x3 - x142x117x3 - x99x117x3 - x121x117x3 - x184x117x3 - x6x117x3 - x104x117x3 - x66x117x3 - x89x117x3 - x21x117x3 - x63x117x3 = 0
1y139 - x159x139x2 - x124x139x2 - x142x139x2 - x99x139x2 - x6x139x2 - x104x139x2 - x66x139x2 - x21x139x2 - x156x139x2 - x64x139x2 = 0
1y139 - x145x139x3 - x47x139x3 - x49x139x3 - x142x139x3 - x99x139x3 - x121x139x3 - x184x139x3 - x6x139x3 - x104x139x3 - x66x139x3 - x89x139x3 - x21x139x3 - x63x139x3 - x156x139x3 = 0
2y51 - x171x51x1 - x172x51x1 - x22x51x1 - x26x51x1 - x182x51x1 - x121x51x1 - x55x51x1 - x63x51x1 - x1x51x1 = 0
2y120 - x171x120x1 - x172x120x1 - x22x120x1 - x26x120x1 - x182x120x1 - x121x120x1 - x55x120x1 - x63x120x1 - x1x120x1 - x18x120x1 - x51x120x1 = 0
2y35 - x145x35x3 - x47x35x3 - x49x35x3 - x142x35x3 - x99x35x3 - x121x35x3 - x184x35x3 - x6x35x3 - x104x35x3 - x66x35x3 - x89x35x3 - x21x35x3 - x63x35x3 - x156x35x3 - x117x35x3 = 0
2y59 - x159x59x2 - x124x59x2 - x142x59x2 - x99x59x2 - x108x59x2 - x188x59x2 - x6x59x2 - x104x59x2 - x66x59x2 - x21x59x2 - x156x59x2 - x146x59x2 - x64x59x2 - x37x59x2 - x117x59x2 - x139x59x2 = 0

s171 - s121 + 7.469523z171z121z1 <= 6.15
s171 - s55 + 7.730048z171z55z1 <= 6.15
s171 - s63 + 7.648185z171z63z1 <= 6.15
s171 - s64 + 7.686873z171z64z1 <= 6.15
s171 - s1 + 7.727899z171z1z1 <= 6.15
s171 - s18 + 7.601182z171z18z1 <= 6.15
s171 - s51 + 7.779154z171z51z1 <= 6.15
s171 - s120 + 7.816677z171z120z1 <= 6.15
s145 - s6 + 7.861485z145z6z3 <= 6.68
s145 - s104 + 8.175423z145z104z3 <= 6.68
s145 - s66 + 8.140661z145z66z3 <= 6.68
s145 - s89 + 8.179883z145z89z3 <= 6.68
s145 - s21 + 8.143574z145z21z3 <= 6.68
s145 - s63 + 8.285273z145z63z3 <= 6.68
s145 - s156 + 8.004694z145z156z3 <= 6.68
s145 - s146 + 8.059640z145z146z3 <= 6.68
s145 - s117 + 8.439654z145z117z3 <= 6.68
s145 - s139 + 8.284384z145z139z3 <= 6.68
s145 - s35 + 8.557477z145z35z3 <= 6.68
s47 - s63 + 8.480041z47z63z3 <= 7.20
s47 - s156 + 8.535008z47z156z3 <= 7.20
s47 - s146 + 8.564736z47z146z3 <= 7.20
s47 - s117 + 8.677088z47z117z3 <= 7.20
s47 - s139 + 8.655831z47z139z3 <= 7.20
s47 - s35 + 8.818795z47z35z3 <= 7.20
s172 - s64 + 8.600819z172z64z1 <= 7.12
s172 - s1 + 8.790365z172z1z1 <= 7.12
s172 - s18 + 8.719511z172z18z1 <= 7.12
s172 - s51 + 8.834572z172z51z1 <= 7.12
s172 - s120 + 8.873426z172z120z1 <= 7.12
s49 - s146 + 8.760158z49z146z3 <= 7.44
s49 - s117 + 8.863026z49z117z3 <= 7.44
s49 - s139 + 8.835059z49z139z3 <= 7.44
s49 - s35 + 9.002079z49z35z3 <= 7.44
s159 - s21 + 8.333754z159z21z2 <= 7.17
s159 - s156 + 8.383212z159z156z2 <= 7.17
s159 - s75 + 8.490053z159z75z2 <= 7.17
s159 - s146 + 8.404248z159z146z2 <= 7.17
s159 - s64 + 8.434434z159z64z2 <= 7.17
s159 - s37 + 8.571770z159z37z2 <= 7.17
s159 - s117 + 8.587387z159z117z2 <= 7.17
s159 - s139 + 8.500767z159z139z2 <= 7.17
s159 - s59 + 8.632280z159z59z2 <= 7.17
s124 - s146 + 8.911018z124z146z2 <= 7.69
s124 - s64 + 8.932723z124z64z2 <= 7.69
s124 - s37 + 9.068871z124z37z2 <= 7.69
s124 - s139 + 8.997609z124z139z2 <= 7.69
s124 - s59 + 9.128874z124z59z2 <= 7.69
s142 - s75 + 8.553235z142z75z2 <= 7.39
s142 - s146 + 8.846063z142z146z2 <= 7.39
s142 - s146 + 8.846063z142z146z3 <= 7.39
s142 - s64 + 8.867467z142z64z2 <= 7.39
s142 - s37 + 8.941295z142z37z2 <= 7.39
s142 - s117 + 8.892458z142z117z2 <= 7.39
s142 - s117 + 8.892458z142z117z3 <= 7.39
s142 - s139 + 8.916470z142z139z2 <= 7.39
s142 - s139 + 8.916470z142z139z3 <= 7.39
s142 - s35 + 9.039896z142z35z3 <= 7.39
s142 - s59 + 9.020374z142z59z2 <= 7.39
s99 - s184 + 8.103651z99z184z3 <= 6.92
s99 - s104 + 8.055632z99z104z2 <= 6.92
s99 - s104 + 8.055632z99z104z3 <= 6.92
s99 - s89 + 8.062298z99z89z3 <= 6.92
s99 - s21 + 8.314273z99z21z2 <= 6.92
s99 - s21 + 8.314273z99z21z3 <= 6.92
s99 - s63 + 8.230771z99z63z3 <= 6.92
s99 - s156 + 8.371940z99z156z2 <= 6.92
s99 - s156 + 8.371940z99z156z3 <= 6.92
s99 - s75 + 8.083681z99z75z2 <= 6.92
s99 - s146 + 8.401418z99z146z2 <= 6.92
s99 - s146 + 8.401418z99z146z3 <= 6.92
s99 - s64 + 8.425179z99z64z2 <= 6.92
s99 - s37 + 8.497721z99z37z2 <= 6.92
s99 - s117 + 8.445281z99z117z2 <= 6.92
s99 - s117 + 8.445281z99z117z3 <= 6.92
s99 - s139 + 8.474344z99z139z2 <= 6.92
s99 - s139 + 8.474344z99z139z3 <= 6.92
s99 - s35 + 8.593384z99z35z3 <= 6.92
s99 - s59 + 8.577432z99z59z2 <= 6.92
s108 - s59 + 9.416284z108z59z2 <= 7.88
s188 - s59 + 9.447383z188z59z2 <= 7.82
s22 - s121 + 7.121235z22z121z1 <= 5.62
s22 - s55 + 7.389727z22z55z1 <= 5.62
s22 - s63 + 7.304268z22z63z1 <= 5.62
s22 - s64 + 7.331423z22z64z1 <= 5.62
s22 - s1 + 7.383090z22z1z1 <= 5.62
s22 - s18 + 7.240474z22z18z1 <= 5.62
s22 - s51 + 7.435108z22z51z1 <= 5.62
s22 - s120 + 7.472034z22z120z1 <= 5.62
s26 - s121 + 7.042829z26z121z1 <= 5.72
s26 - s55 + 7.357277z26z55z1 <= 5.72
s26 - s63 + 7.223346z26z63z1 <= 5.72
s26 - s64 + 7.391332z26z64z1 <= 5.72
s26 - s1 + 7.291698z26z1z1 <= 5.72
s26 - s18 + 7.110633z26z18z1 <= 5.72
s26 - s51 + 7.344822z26z51z1 <= 5.72
s26 - s120 + 7.376731z26z120z1 <= 5.72
s182 - s121 + 6.943627z182z121z1 <= 5.66
s182 - s55 + 7.259741z182z55z1 <= 5.66
s182 - s63 + 7.119226z182z63z1 <= 5.66
s182 - s64 + 7.310606z182z64z1 <= 5.66
s182 - s1 + 7.185145z182z1z1 <= 5.66
s182 - s18 + 7.000261z182z18z1 <= 5.66
s182 - s51 + 7.238004z182z51z1 <= 5.66
s182 - s120 + 7.269006z182z120z1 <= 5.66
s121 - s184 + 9.064975z121z184z3 <= 8.01
s121 - s104 + 9.052164z121z104z3 <= 8.01
s121 - s89 + 9.054722z121z89z3 <= 8.01
s121 - s21 + 9.299444z121z21z3 <= 8.01
s121 - s55 + 9.326158z121z55z1 <= 8.01
s121 - s63 + 9.196786z121z63z1 <= 8.01
s121 - s63 + 9.196786z121z63z3 <= 8.01
s121 - s156 + 9.403334z121z156z3 <= 8.01
s121 - s146 + 9.420149z121z146z3 <= 8.01
s121 - s64 + 9.412768z121z64z1 <= 8.01
s121 - s1 + 9.273059z121z1z1 <= 8.01
s121 - s18 + 9.159815z121z18z1 <= 8.01
s121 - s117 + 9.407884z121z117z3 <= 8.01
s121 - s139 + 9.449646z121z139z3 <= 8.01
s121 - s51 + 9.325876z121z51z1 <= 8.01
s121 - s120 + 9.361821z121z120z1 <= 8.01
s121 - s35 + 9.555243z121z35z3 <= 8.01
s184 - s104 + 9.186666z184z104z3 <= 8.12
s184 - s89 + 9.182893z184z89z3 <= 8.12
s184 - s63 + 9.254825z184z63z3 <= 8.12
s184 - s156 + 9.503724z184z156z3 <= 8.12
s184 - s146 + 9.513333z184z146z3 <= 8.12
s184 - s117 + 9.463187z184z117z3 <= 8.12
s184 - s139 + 9.516036z184z139z3 <= 8.12
s184 - s35 + 9.610306z184z35z3 <= 8.12
s6 - s156 + 9.376818z6z156z2 <= 8.23
s6 - s156 + 9.376818z6z156z3 <= 8.23
s6 - s75 + 9.778533z6z75z2 <= 8.23
s6 - s146 + 9.430997z6z146z2 <= 8.23
s6 - s146 + 9.430997z6z146z3 <= 8.23
s6 - s64 + 9.571630z6z64z2 <= 8.23
s6 - s37 + 9.795135z6z37z2 <= 8.23
s6 - s117 + 9.861118z6z117z2 <= 8.23
s6 - s117 + 9.861118z6z117z3 <= 8.23
s6 - s139 + 9.666603z6z139z2 <= 8.23
s6 - s139 + 9.666603z6z139z3 <= 8.23
s6 - s35 + 9.962878z6z35z3 <= 8.23
s6 - s59 + 9.823033z6z59z2 <= 8.23
s104 - s89 + 9.266666z104z89z3 <= 8.26
s104 - s63 + 9.436510z104z63z3 <= 8.26
s104 - s156 + 9.693539z104z156z2 <= 8.26
s104 - s156 + 9.693539z104z156z3 <= 8.26
s104 - s75 + 9.360222z104z75z2 <= 8.26
s104 - s146 + 9.708454z104z146z2 <= 8.26
s104 - s146 + 9.708454z104z146z3 <= 8.26
s104 - s64 + 9.692564z104z64z2 <= 8.26
s104 - s37 + 9.720435z104z37z2 <= 8.26
s104 - s117 + 9.652938z104z117z2 <= 8.26
s104 - s117 + 9.652938z104z117z3 <= 8.26
s104 - s139 + 9.722697z104z139z2 <= 8.26
s104 - s139 + 9.722697z104z139z3 <= 8.26
s104 - s35 + 9.802135z104z35z3 <= 8.26
s104 - s59 + 9.805569z104z59z2 <= 8.26
s66 - s21 + 9.291082z66z21z2 <= 8.27
s66 - s21 + 9.291082z66z21z3 <= 8.27
s66 - s63 + 9.515855z66z63z3 <= 8.27
s66 - s156 + 9.478273z66z156z2 <= 8.27
s66 - s156 + 9.478273z66z156z3 <= 8.27
s66 - s75 + 9.664237z66z75z2 <= 8.27
s66 - s146 + 9.460905z66z146z2 <= 8.27
s66 - s146 + 9.460905z66z146z3 <= 8.27
s66 - s64 + 9.404164z66z64z2 <= 8.27
s66 - s37 + 9.530342z66z37z2 <= 8.27
s66 - s117 + 9.582481z66z117z2 <= 8.27
s66 - s117 + 9.582481z66z117z3 <= 8.27
s66 - s139 + 9.453061z66z139z2 <= 8.27
s66 - s139 + 9.453061z66z139z3 <= 8.27
s66 - s35 + 9.687613z66z35z3 <= 8.27
s66 - s59 + 9.583830z66z59z2 <= 8.27
s89 - s63 + 9.449967z89z63z3 <= 8.28
s89 - s146 + 9.727908z89z146z3 <= 8.28
s89 - s117 + 9.666494z89z117z3 <= 8.28
s89 - s139 + 9.738791z89z139z3 <= 8.28
s89 - s35 + 9.815744z89z35z3 <= 8.28
s21 - s63 + 9.614155z21z63z3 <= 8.35
s21 - s156 + 9.547991z21z156z2 <= 8.35
s21 - s156 + 9.547991z21z156z3 <= 8.35
s21 - s75 + 9.765318z21z75z2 <= 8.35
s21 - s146 + 9.526132z21z146z2 <= 8.35
s21 - s146 + 9.526132z21z146z3 <= 8.35
s21 - s64 + 9.463334z21z64z2 <= 8.35
s21 - s37 + 9.605517z21z37z2 <= 8.35
s21 - s117 + 9.668678z21z117z2 <= 8.35
s21 - s117 + 9.668678z21z117z3 <= 8.35
s21 - s139 + 9.517067z21z139z2 <= 8.35
s21 - s139 + 9.517067z21z139z3 <= 8.35
s21 - s35 + 9.767507z21z35z3 <= 8.35
s21 - s59 + 9.653608z21z59z2 <= 8.35
s55 - s64 + 9.868979z55z64z1 <= 8.63
s55 - s1 + 9.805372z55z1z1 <= 8.63
s55 - s18 + 9.962132z55z18z1 <= 8.63
s55 - s51 + 9.805372z55z51z1 <= 8.63
s55 - s120 + 9.832430z55z120z1 <= 8.63
s63 - s64 + 9.990062z63z64z1 <= 8.63
s63 - s1 + 9.710554z63z1z1 <= 8.63
s63 - s18 + 9.790555z63z18z1 <= 8.63
s63 - s117 + 9.847154z63z117z3 <= 8.63
s63 - s139 + 9.984401z63z139z3 <= 8.63
s63 - s51 + 9.760980z63z51z1 <= 8.63
s63 - s120 + 9.798655z63z120z1 <= 8.63
s63 - s35 + 9.996849z63z35z3 <= 8.63
s156 - s146 + 9.764975z156z146z2 <= 8.71
s156 - s146 + 9.764975z156z146z3 <= 8.71
s156 - s64 + 9.907428z156z64z2 <= 8.71
s156 - s139 + 10.002878z156z139z2 <= 8.71
s156 - s139 + 10.002878z156z139z3 <= 8.71
s156 - s35 + 10.312366z156z35z3 <= 8.71
s156 - s59 + 10.159790z156z59z2 <= 8.71
s146 - s59 + 10.381109z146z59z2 <= 8.98
s64 - s139 + 10.105453z64z139z2 <= 9.01
s64 - s59 + 10.262367z64z59z2 <= 9.01
s1 - s51 + 10.073334z1z51z1 <= 9.02
s1 - s120 + 10.108945z1z120z1 <= 9.02
s18 - s120 + 10.324874z18z120z1 <= 9.05
s37 - s59 + 10.162616z37z59z2 <= 9.07
s117 - s35 + 10.219814z117z35z3 <= 9.07
s117 - s59 + 10.314495z117z59z2 <= 9.07
s139 - s59 + 10.336915z139z59z2 <= 9.18
s51 - s120 + 10.228872z51z120z1 <= 9.19

x171x121x1 - 1z171z121z1 <= 0
x171x55x1 - 2z171z55z1 <= 0
x171x63x1 - 1z171z63z1 <= 0
x171x64x1 - 1z171z64z1 <= 0
x171x1x1 - 2z171z1z1 <= 0
x171x18x1 - 2z171z18z1 <= 0
x171x51x1 - 2z171z51z1 <= 0
x171x120x1 - 2z171z120z1 <= 0
x145x6x3 - 1z145z6z3 <= 0
x145x104x3 - 1z145z104z3 <= 0
x145x66x3 - 1z145z66z3 <= 0
x145x89x3 - 2z145z89z3 <= 0
x145x21x3 - 1z145z21z3 <= 0
x145x63x3 - 1z145z63z3 <= 0
x145x156x3 - 1z145z156z3 <= 0
x145x146x3 - 1z145z146z3 <= 0
x145x117x3 - 1z145z117z3 <= 0
x145x139x3 - 1z145z139z3 <= 0
x145x35x3 - 2z145z35z3 <= 0
x47x63x3 - 1z47z63z3 <= 0
x47x156x3 - 1z47z156z3 <= 0
x47x146x3 - 1z47z146z3 <= 0
x47x117x3 - 1z47z117z3 <= 0
x47x139x3 - 1z47z139z3 <= 0
x47x35x3 - 2z47z35z3 <= 0
x172x64x1 - 1z172z64z1 <= 0
x172x1x1 - 2z172z1z1 <= 0
x172x18x1 - 2z172z18z1 <= 0
x172x51x1 - 2z172z51z1 <= 0
x172x120x1 - 2z172z120z1 <= 0
x49x146x3 - 1z49z146z3 <= 0
x49x117x3 - 1z49z117z3 <= 0
x49x139x3 - 1z49z139z3 <= 0
x49x35x3 - 2z49z35z3 <= 0
x159x21x2 - 1z159z21z2 <= 0
x159x156x2 - 1z159z156z2 <= 0
x159x75x2 - 2z159z75z2 <= 0
x159x146x2 - 1z159z146z2 <= 0
x159x64x2 - 1z159z64z2 <= 0
x159x37x2 - 2z159z37z2 <= 0
x159x117x2 - 1z159z117z2 <= 0
x159x139x2 - 1z159z139z2 <= 0
x159x59x2 - 2z159z59z2 <= 0
x124x146x2 - 1z124z146z2 <= 0
x124x64x2 - 1z124z64z2 <= 0
x124x37x2 - 2z124z37z2 <= 0
x124x139x2 - 1z124z139z2 <= 0
x124x59x2 - 2z124z59z2 <= 0
x142x75x2 - 2z142z75z2 <= 0
x142x146x2 - 1z142z146z2 <= 0
x142x146x3 - 1z142z146z3 <= 0
x142x64x2 - 1z142z64z2 <= 0
x142x37x2 - 2z142z37z2 <= 0
x142x117x2 - 1z142z117z2 <= 0
x142x117x3 - 1z142z117z3 <= 0
x142x139x2 - 1z142z139z2 <= 0
x142x139x3 - 1z142z139z3 <= 0
x142x35x3 - 2z142z35z3 <= 0
x142x59x2 - 2z142z59z2 <= 0
x99x184x3 - 2z99z184z3 <= 0
x99x104x2 - 1z99z104z2 <= 0
x99x104x3 - 1z99z104z3 <= 0
x99x89x3 - 2z99z89z3 <= 0
x99x21x2 - 1z99z21z2 <= 0
x99x21x3 - 1z99z21z3 <= 0
x99x63x3 - 1z99z63z3 <= 0
x99x156x2 - 1z99z156z2 <= 0
x99x156x3 - 1z99z156z3 <= 0
x99x75x2 - 2z99z75z2 <= 0
x99x146x2 - 1z99z146z2 <= 0
x99x146x3 - 1z99z146z3 <= 0
x99x64x2 - 1z99z64z2 <= 0
x99x37x2 - 2z99z37z2 <= 0
x99x117x2 - 1z99z117z2 <= 0
x99x117x3 - 1z99z117z3 <= 0
x99x139x2 - 1z99z139z2 <= 0
x99x139x3 - 1z99z139z3 <= 0
x99x35x3 - 2z99z35z3 <= 0
x99x59x2 - 2z99z59z2 <= 0
x108x59x2 - 2z108z59z2 <= 0
x188x59x2 - 2z188z59z2 <= 0
x22x121x1 - 1z22z121z1 <= 0
x22x55x1 - 2z22z55z1 <= 0
x22x63x1 - 1z22z63z1 <= 0
x22x64x1 - 1z22z64z1 <= 0
x22x1x1 - 2z22z1z1 <= 0
x22x18x1 - 2z22z18z1 <= 0
x22x51x1 - 2z22z51z1 <= 0
x22x120x1 - 2z22z120z1 <= 0
x26x121x1 - 1z26z121z1 <= 0
x26x55x1 - 2z26z55z1 <= 0
x26x63x1 - 1z26z63z1 <= 0
x26x64x1 - 1z26z64z1 <= 0
x26x1x1 - 2z26z1z1 <= 0
x26x18x1 - 2z26z18z1 <= 0
x26x51x1 - 2z26z51z1 <= 0
x26x120x1 - 2z26z120z1 <= 0
x182x121x1 - 1z182z121z1 <= 0
x182x55x1 - 2z182z55z1 <= 0
x182x63x1 - 1z182z63z1 <= 0
x182x64x1 - 1z182z64z1 <= 0
x182x1x1 - 2z182z1z1 <= 0
x182x18x1 - 2z182z18z1 <= 0
x182x51x1 - 2z182z51z1 <= 0
x182x120x1 - 2z182z120z1 <= 0
x121x184x3 - 2z121z184z3 <= 0
x121x104x3 - 1z121z104z3 <= 0
x121x89x3 - 2z121z89z3 <= 0
x121x21x3 - 1z121z21z3 <= 0
x121x55x1 - 2z121z55z1 <= 0
x121x63x1 - 1z121z63z1 <= 0
x121x63x3 - 1z121z63z3 <= 0
x121x156x3 - 1z121z156z3 <= 0
x121x146x3 - 1z121z146z3 <= 0
x121x64x1 - 1z121z64z1 <= 0
x121x1x1 - 2z121z1z1 <= 0
x121x18x1 - 2z121z18z1 <= 0
x121x117x3 - 1z121z117z3 <= 0
x121x139x3 - 1z121z139z3 <= 0
x121x51x1 - 2z121z51z1 <= 0
x121x120x1 - 2z121z120z1 <= 0
x121x35x3 - 2z121z35z3 <= 0
x121x0x1 <= 1
x121x0x3 <= 1
x184x104x3 - 1z184z104z3 <= 0
x184x89x3 - 2z184z89z3 <= 0
x184x63x3 - 1z184z63z3 <= 0
x184x156x3 - 1z184z156z3 <= 0
x184x146x3 - 1z184z146z3 <= 0
x184x117x3 - 1z184z117z3 <= 0
x184x139x3 - 1z184z139z3 <= 0
x184x35x3 - 2z184z35z3 <= 0
x184x0x3 <= 2
x6x156x2 - 1z6z156z2 <= 0
x6x156x3 - 1z6z156z3 <= 0
x6x75x2 - 2z6z75z2 <= 0
x6x146x2 - 1z6z146z2 <= 0
x6x146x3 - 1z6z146z3 <= 0
x6x64x2 - 1z6z64z2 <= 0
x6x37x2 - 2z6z37z2 <= 0
x6x117x2 - 1z6z117z2 <= 0
x6x117x3 - 1z6z117z3 <= 0
x6x139x2 - 1z6z139z2 <= 0
x6x139x3 - 1z6z139z3 <= 0
x6x35x3 - 2z6z35z3 <= 0
x6x59x2 - 2z6z59z2 <= 0
x6x0x2 <= 1
x6x0x3 <= 1
x104x89x3 - 2z104z89z3 <= 0
x104x63x3 - 1z104z63z3 <= 0
x104x156x2 - 1z104z156z2 <= 0
x104x156x3 - 1z104z156z3 <= 0
x104x75x2 - 2z104z75z2 <= 0
x104x146x2 - 1z104z146z2 <= 0
x104x146x3 - 1z104z146z3 <= 0
x104x64x2 - 1z104z64z2 <= 0
x104x37x2 - 2z104z37z2 <= 0
x104x117x2 - 1z104z117z2 <= 0
x104x117x3 - 1z104z117z3 <= 0
x104x139x2 - 1z104z139z2 <= 0
x104x139x3 - 1z104z139z3 <= 0
x104x35x3 - 2z104z35z3 <= 0
x104x59x2 - 2z104z59z2 <= 0
x104x0x2 <= 1
x104x0x3 <= 1
x66x21x2 - 1z66z21z2 <= 0
x66x21x3 - 1z66z21z3 <= 0
x66x63x3 - 1z66z63z3 <= 0
x66x156x2 - 1z66z156z2 <= 0
x66x156x3 - 1z66z156z3 <= 0
x66x75x2 - 2z66z75z2 <= 0
x66x146x2 - 1z66z146z2 <= 0
x66x146x3 - 1z66z146z3 <= 0
x66x64x2 - 1z66z64z2 <= 0
x66x37x2 - 2z66z37z2 <= 0
x66x117x2 - 1z66z117z2 <= 0
x66x117x3 - 1z66z117z3 <= 0
x66x139x2 - 1z66z139z2 <= 0
x66x139x3 - 1z66z139z3 <= 0
x66x35x3 - 2z66z35z3 <= 0
x66x59x2 - 2z66z59z2 <= 0
x66x0x2 <= 1
x66x0x3 <= 1
x89x63x3 - 1z89z63z3 <= 0
x89x146x3 - 1z89z146z3 <= 0
x89x117x3 - 1z89z117z3 <= 0
x89x139x3 - 1z89z139z3 <= 0
x89x35x3 - 2z89z35z3 <= 0
x89x0x3 <= 2
x21x63x3 - 1z21z63z3 <= 0
x21x156x2 - 1z21z156z2 <= 0
x21x156x3 - 1z21z156z3 <= 0
x21x75x2 - 2z21z75z2 <= 0
x21x146x2 - 1z21z146z2 <= 0
x21x146x3 - 1z21z146z3 <= 0
x21x64x2 - 1z21z64z2 <= 0
x21x37x2 - 2z21z37z2 <= 0
x21x117x2 - 1z21z117z2 <= 0
x21x117x3 - 1z21z117z3 <= 0
x21x139x2 - 1z21z139z2 <= 0
x21x139x3 - 1z21z139z3 <= 0
x21x35x3 - 2z21z35z3 <= 0
x21x59x2 - 2z21z59z2 <= 0
x21x0x2 <= 1
x21x0x3 <= 1
x55x64x1 - 1z55z64z1 <= 0
x55x1x1 - 2z55z1z1 <= 0
x55x18x1 - 2z55z18z1 <= 0
x55x51x1 - 2z55z51z1 <= 0
x55x120x1 - 2z55z120z1 <= 0
x55x0x1 <= 2
x63x64x1 - 1z63z64z1 <= 0
x63x1x1 - 2z63z1z1 <= 0
x63x18x1 - 2z63z18z1 <= 0
x63x117x3 - 1z63z117z3 <= 0
x63x139x3 - 1z63z139z3 <= 0
x63x51x1 - 2z63z51z1 <= 0
x63x120x1 - 2z63z120z1 <= 0
x63x35x3 - 2z63z35z3 <= 0
x63x0x1 <= 1
x63x0x3 <= 1
x156x146x2 - 1z156z146z2 <= 0
x156x146x3 - 1z156z146z3 <= 0
x156x64x2 - 1z156z64z2 <= 0
x156x139x2 - 1z156z139z2 <= 0
x156x139x3 - 1z156z139z3 <= 0
x156x35x3 - 2z156z35z3 <= 0
x156x59x2 - 2z156z59z2 <= 0
x156x0x2 <= 1
x156x0x3 <= 1
x75x0x2 <= 2
x146x59x2 - 2z146z59z2 <= 0
x146x0x2 <= 1
x146x0x3 <= 1
x64x139x2 - 1z64z139z2 <= 0
x64x59x2 - 2z64z59z2 <= 0
x64x0x1 <= 1
x64x0x2 <= 1
x1x51x1 - 2z1z51z1 <= 0
x1x120x1 - 2z1z120z1 <= 0
x1x0x1 <= 2
x18x120x1 - 2z18z120z1 <= 0
x18x0x1 <= 2
x37x59x2 - 2z37z59z2 <= 0
x37x0x2 <= 2
x117x35x3 - 2z117z35z3 <= 0
x117x59x2 - 2z117z59z2 <= 0
x117x0x2 <= 1
x117x0x3 <= 1
x139x59x2 - 2z139z59z2 <= 0
x139x0x2 <= 1
x139x0x3 <= 1
x51x120x1 - 2z51z120z1 <= 0
x51x0x1 <= 2
x120x0x1 <= 2
x35x0x3 <= 2
x59x0x2 <= 2

Bounds
s171 = 6.150010
s145 = 6.684347
s47 = 7.197041
s172 = 7.120772
s49 = 7.435059
s159 = 7.169775
s124 = 7.687412
s142 = 7.392680
s99 = 6.922298
s108 = 7.882784
s188 = 7.817180
s22 = 5.623060
s26 = 5.715890
s182 = 5.660000
7.010000 <= s121 <= 8.010000
7.120000 <= s184 <= 8.120000
7.230000 <= s6 <= 8.230000
7.260000 <= s104 <= 8.260000
7.270000 <= s66 <= 8.270000
7.280000 <= s89 <= 8.280000
7.350000 <= s21 <= 8.350000
7.630000 <= s55 <= 8.630000
7.630000 <= s63 <= 8.630000
7.710000 <= s156 <= 8.710000
7.950000 <= s75 <= 8.950000
7.980000 <= s146 <= 8.980000
8.010000 <= s64 <= 9.010000
8.020000 <= s1 <= 9.020000
8.050000 <= s18 <= 9.050000
8.070000 <= s37 <= 9.070000
8.070000 <= s117 <= 9.070000
8.180000 <= s139 <= 9.180000
8.190000 <= s51 <= 9.190000
8.400000 <= s120 <= 9.400000
8.440000 <= s35 <= 9.440000
8.490000 <= s59 <= 9.490000

General
x171x121x1 x171x55x1 x171x63x1 x171x64x1 x171x1x1 x171x18x1 x171x51x1 x171x120x1 
x145x6x3 x145x104x3 x145x66x3 x145x89x3 x145x21x3 x145x63x3 x145x156x3 x145x146x3 x145x117x3 x145x139x3 x145x35x3 
x47x63x3 x47x156x3 x47x146x3 x47x117x3 x47x139x3 x47x35x3 
x172x64x1 x172x1x1 x172x18x1 x172x51x1 x172x120x1 
x49x146x3 x49x117x3 x49x139x3 x49x35x3 
x159x21x2 x159x156x2 x159x75x2 x159x146x2 x159x64x2 x159x37x2 x159x117x2 x159x139x2 x159x59x2 
x124x146x2 x124x64x2 x124x37x2 x124x139x2 x124x59x2 
x142x75x2 x142x146x2 x142x146x3 x142x64x2 x142x37x2 x142x117x2 x142x117x3 x142x139x2 x142x139x3 x142x35x3 x142x59x2 
x99x184x3 x99x104x2 x99x104x3 x99x89x3 x99x21x2 x99x21x3 x99x63x3 x99x156x2 x99x156x3 x99x75x2 x99x146x2 x99x146x3 x99x64x2 x99x37x2 x99x117x2 x99x117x3 x99x139x2 x99x139x3 x99x35x3 x99x59x2 
x108x59x2 
x188x59x2 
x22x121x1 x22x55x1 x22x63x1 x22x64x1 x22x1x1 x22x18x1 x22x51x1 x22x120x1 
x26x121x1 x26x55x1 x26x63x1 x26x64x1 x26x1x1 x26x18x1 x26x51x1 x26x120x1 
x182x121x1 x182x55x1 x182x63x1 x182x64x1 x182x1x1 x182x18x1 x182x51x1 x182x120x1 
x121x184x3 x121x104x3 x121x89x3 x121x21x3 x121x55x1 x121x63x1 x121x63x3 x121x156x3 x121x146x3 x121x64x1 x121x1x1 x121x18x1 x121x117x3 x121x139x3 x121x51x1 x121x120x1 x121x35x3 x121x0x1 x121x0x3 
x184x104x3 x184x89x3 x184x63x3 x184x156x3 x184x146x3 x184x117x3 x184x139x3 x184x35x3 x184x0x3 
x6x156x2 x6x156x3 x6x75x2 x6x146x2 x6x146x3 x6x64x2 x6x37x2 x6x117x2 x6x117x3 x6x139x2 x6x139x3 x6x35x3 x6x59x2 x6x0x2 x6x0x3 
x104x89x3 x104x63x3 x104x156x2 x104x156x3 x104x75x2 x104x146x2 x104x146x3 x104x64x2 x104x37x2 x104x117x2 x104x117x3 x104x139x2 x104x139x3 x104x35x3 x104x59x2 x104x0x2 x104x0x3 
x66x21x2 x66x21x3 x66x63x3 x66x156x2 x66x156x3 x66x75x2 x66x146x2 x66x146x3 x66x64x2 x66x37x2 x66x117x2 x66x117x3 x66x139x2 x66x139x3 x66x35x3 x66x59x2 x66x0x2 x66x0x3 
x89x63x3 x89x146x3 x89x117x3 x89x139x3 x89x35x3 x89x0x3 
x21x63x3 x21x156x2 x21x156x3 x21x75x2 x21x146x2 x21x146x3 x21x64x2 x21x37x2 x21x117x2 x21x117x3 x21x139x2 x21x139x3 x21x35x3 x21x59x2 x21x0x2 x21x0x3 
x55x64x1 x55x1x1 x55x18x1 x55x51x1 x55x120x1 x55x0x1 
x63x64x1 x63x1x1 x63x18x1 x63x117x3 x63x139x3 x63x51x1 x63x120x1 x63x35x3 x63x0x1 x63x0x3 
x156x146x2 x156x146x3 x156x64x2 x156x139x2 x156x139x3 x156x35x3 x156x59x2 x156x0x2 x156x0x3 
x75x0x2 
x146x59x2 x146x0x2 x146x0x3 
x64x139x2 x64x59x2 x64x0x1 x64x0x2 
x1x51x1 x1x120x1 x1x0x1 
x18x120x1 x18x0x1 
x37x59x2 x37x0x2 
x117x35x3 x117x59x2 x117x0x2 x117x0x3 
x139x59x2 x139x0x2 x139x0x3 
x51x120x1 x51x0x1 
x120x0x1 
x35x0x3 
x59x0x2 

Binaries
y121 y184 y6 y104 y66 y89 y21 y55 y63 y156 y75 y146 y64 y1 y18 y37 y117 y139 y51 y120 y35 y59 
z171z121z1 z171z55z1 z171z63z1 z171z64z1 z171z1z1 z171z18z1 z171z51z1 z171z120z1 
z145z6z3 z145z104z3 z145z66z3 z145z89z3 z145z21z3 z145z63z3 z145z156z3 z145z146z3 z145z117z3 z145z139z3 z145z35z3 
z47z63z3 z47z156z3 z47z146z3 z47z117z3 z47z139z3 z47z35z3 
z172z64z1 z172z1z1 z172z18z1 z172z51z1 z172z120z1 
z49z146z3 z49z117z3 z49z139z3 z49z35z3 
z159z21z2 z159z156z2 z159z75z2 z159z146z2 z159z64z2 z159z37z2 z159z117z2 z159z139z2 z159z59z2 
z124z146z2 z124z64z2 z124z37z2 z124z139z2 z124z59z2 
z142z75z2 z142z146z2 z142z146z3 z142z64z2 z142z37z2 z142z117z2 z142z117z3 z142z139z2 z142z139z3 z142z35z3 z142z59z2 
z99z184z3 z99z104z2 z99z104z3 z99z89z3 z99z21z2 z99z21z3 z99z63z3 z99z156z2 z99z156z3 z99z75z2 z99z146z2 z99z146z3 z99z64z2 z99z37z2 z99z117z2 z99z117z3 z99z139z2 z99z139z3 z99z35z3 z99z59z2 
z108z59z2 
z188z59z2 
z22z121z1 z22z55z1 z22z63z1 z22z64z1 z22z1z1 z22z18z1 z22z51z1 z22z120z1 
z26z121z1 z26z55z1 z26z63z1 z26z64z1 z26z1z1 z26z18z1 z26z51z1 z26z120z1 
z182z121z1 z182z55z1 z182z63z1 z182z64z1 z182z1z1 z182z18z1 z182z51z1 z182z120z1 
z121z184z3 z121z104z3 z121z89z3 z121z21z3 z121z55z1 z121z63z1 z121z63z3 z121z156z3 z121z146z3 z121z64z1 z121z1z1 z121z18z1 z121z117z3 z121z139z3 z121z51z1 z121z120z1 z121z35z3 
z184z104z3 z184z89z3 z184z63z3 z184z156z3 z184z146z3 z184z117z3 z184z139z3 z184z35z3 
z6z156z2 z6z156z3 z6z75z2 z6z146z2 z6z146z3 z6z64z2 z6z37z2 z6z117z2 z6z117z3 z6z139z2 z6z139z3 z6z35z3 z6z59z2 
z104z89z3 z104z63z3 z104z156z2 z104z156z3 z104z75z2 z104z146z2 z104z146z3 z104z64z2 z104z37z2 z104z117z2 z104z117z3 z104z139z2 z104z139z3 z104z35z3 z104z59z2 
z66z21z2 z66z21z3 z66z63z3 z66z156z2 z66z156z3 z66z75z2 z66z146z2 z66z146z3 z66z64z2 z66z37z2 z66z117z2 z66z117z3 z66z139z2 z66z139z3 z66z35z3 z66z59z2 
z89z63z3 z89z146z3 z89z117z3 z89z139z3 z89z35z3 
z21z63z3 z21z156z2 z21z156z3 z21z75z2 z21z146z2 z21z146z3 z21z64z2 z21z37z2 z21z117z2 z21z117z3 z21z139z2 z21z139z3 z21z35z3 z21z59z2 
z55z64z1 z55z1z1 z55z18z1 z55z51z1 z55z120z1 
z63z64z1 z63z1z1 z63z18z1 z63z117z3 z63z139z3 z63z51z1 z63z120z1 z63z35z3 
z156z146z2 z156z146z3 z156z64z2 z156z139z2 z156z139z3 z156z35z3 z156z59z2 

z146z59z2 
z64z139z2 z64z59z2 
z1z51z1 z1z120z1 
z18z120z1 
z37z59z2 
z117z35z3 z117z59z2 
z139z59z2 
z51z120z1 




End